15 = ndim
12 = nblocks
7 6 1 1 1 1 1 1 1 1 1 1 = blockstruct
1.0, 0.0, 0.0, 0.0, 0.0, 0.0, 0.0, 0.0, 0.0, 0.0, 0.0, 0.0, 0.0, 0.0, 0.0 = objcoeffs
0 1 1 1 14.8163350555185
0 1 1 2 3.5541448873317942
0 1 1 3 -0.81710621230021
0 1 1 4 -4.795164972621829
0 1 1 5 3.7719924781497216
0 1 1 6 2.5665889571175122
0 1 1 7 -0.29215982390843576
0 1 2 2 -1.0
0 1 3 3 -1.0
0 1 4 4 -1.0
0 1 5 5 -1.0
0 1 6 6 -1.0
0 1 7 7 -1.0
0 2 1 1 1e-06
0 2 2 2 1e-06
0 2 3 3 1e-06
0 2 4 4 1e-06
0 2 5 5 1e-06
0 2 6 6 1e-06
0 3 1 1 1e-06
0 4 1 1 1e-06
0 5 1 1 1e-06
0 6 1 1 1e-06
0 7 1 1 1e-06
0 8 1 1 1e-06
0 9 1 1 1e-06
0 10 1 1 1e-06
0 11 1 1 1e-06
0 12 1 1 -0.249999
1 1 1 1 1.0
2 1 1 2 436.8246426196923
2 2 3 3 1.0
3 1 1 2 6.825820329009124
3 1 1 3 -325.94191408171866
3 2 2 6 1.0
3 2 3 5 -1.0
3 6 1 1 1.0
3 7 1 1 -1.0
4 1 1 2 -59.3583286157453
4 1 1 3 -40.50606139892284
4 1 1 4 393.90345618476334
4 2 1 6 -1.0
4 2 3 4 1.0
4 8 1 1 1.0
4 9 1 1 -1.0
5 1 1 2 0.0442040178005767
5 1 1 3 -1.0039391886380211
5 1 1 4 -0.6677460194201827
5 1 1 5 59.44790776102861
5 4 1 1 1.0
6 1 1 2 0.04828081652217553
6 1 1 3 -8.286191103720817
6 1 1 4 7.263527230122037
6 1 1 5 41.632100726371135
6 1 1 6 30.260664134455705
6 5 1 1 1.0
7 1 1 2 0.029006032123854997
7 1 1 3 45.57282580133226
7 1 1 4 -8.559464586136903
7 1 1 5 -0.02530802697192791
7 1 1 6 0.28801845969613815
7 1 1 7 24.902417646028578
8 2 1 1 1.0
9 2 1 2 1.0
10 2 1 3 1.0
11 2 2 2 1.0
12 2 2 3 1.0
13 2 1 5 1.0
13 2 2 4 -1.0
13 10 1 1 1.0
13 11 1 1 -1.0
14 2 4 4 1.0
14 2 5 5 1.0
14 2 6 6 1.0
14 6 1 1 0.005
14 7 1 1 0.005
14 8 1 1 0.16
14 9 1 1 0.01
14 10 1 1 0.01
14 11 1 1 0.01
14 12 1 1 -1.0
15 2 3 3 -1.0
15 3 1 1 1.0
